p cnf 1345
-17 -423
-18 -426
-19 -429
-20 -432
-21 -435
-22 -438
-23 -441
-24 -444
-25 -447
-26 -450
-27 -453
-28 -456
-29 -459
-30 -462
-31 -465
-32 -468
-33 469
-34 470
-35 471
-36 472
-37 473
-38 474
-39 475
-40 476
-41 477
-42 478
-43 479
-44 480
-45 481
-46 482
-47 -18
-47 -19
18 19 47
-48 -20
-48 -21
20 21 48
-49 -22
-49 -23
22 23 49
-50 -24
-50 -25
24 25 50
-51 -26
-51 -27
26 27 51
-52 -28
-52 -29
28 29 52
-53 -30
-53 -31
30 31 53
-54 -32
-54 -33
32 33 54
-55 -34
-55 -35
34 35 55
-56 -36
-56 -37
36 37 56
-57 -38
-57 -39
38 39 57
-58 -40
-58 -41
40 41 58
-59 -42
-59 -43
42 43 59
-60 -44
-60 -45
44 45 60
-61 47
-61 48
-47 -48 61
-62 49
-62 50
-49 -50 62
-63 51
-63 52
-51 -52 63
-64 53
-64 54
-53 -54 64
-65 55
-65 56
-55 -56 65
-66 57
-66 58
-57 -58 66
-67 59
-67 60
-59 -60 67
-68 61
-68 62
-61 -62 68
-69 63
-69 64
-63 -64 69
-70 65
-70 66
-65 -66 70
-71 -46
-71 67
46 -67 71
-72 68
-72 69
-68 -69 72
-73 70
-73 71
-70 -71 73
-74 72
-74 73
-72 -73 74
-75 -17
-75 18
17 -18 75
-76 17
-76 -18
-17 18 76
-77 -75
-77 -76
75 76 77
-78 17
-78 18
-17 -18 78
-79 -17
-79 -77
17 77 79
-80 17
-80 77
-17 -77 80
-81 -79
-81 -80
79 80 81
-82 17
-82 -77
-17 77 82
-83 -78
-83 -82
78 82 83
-84 -18
-84 19
18 -19 84
-85 18
-85 -19
-18 19 85
-86 -84
-86 -85
84 85 86
-87 18
-87 19
-18 -19 87
-88 83
-88 -86
-83 86 88
-89 -83
-89 86
83 -86 89
-90 -88
-90 -89
88 89 90
-91 -83
-91 -86
83 86 91
-92 -87
-92 -91
87 91 92
-93 -19
-93 20
19 -20 93
-94 19
-94 -20
-19 20 94
-95 -93
-95 -94
93 94 95
-96 19
-96 20
-19 -20 96
-97 92
-97 -95
-92 95 97
-98 -92
-98 95
92 -95 98
-99 -97
-99 -98
97 98 99
-100 -92
-100 -95
92 95 100
-101 -96
-101 -100
96 100 101
-102 -20
-102 21
20 -21 102
-103 20
-103 -21
-20 21 103
-104 -102
-104 -103
102 103 104
-105 20
-105 21
-20 -21 105
-106 101
-106 -104
-101 104 106
-107 -101
-107 104
101 -104 107
-108 -106
-108 -107
106 107 108
-109 -101
-109 -104
101 104 109
-110 -105
-110 -109
105 109 110
-111 -21
-111 22
21 -22 111
-112 21
-112 -22
-21 22 112
-113 -111
-113 -112
111 112 113
-114 21
-114 22
-21 -22 114
-115 110
-115 -113
-110 113 115
-116 -110
-116 113
110 -113 116
-117 -115
-117 -116
115 116 117
-118 -110
-118 -113
110 113 118
-119 -114
-119 -118
114 118 119
-120 -22
-120 23
22 -23 120
-121 22
-121 -23
-22 23 121
-122 -120
-122 -121
120 121 122
-123 22
-123 23
-22 -23 123
-124 119
-124 -122
-119 122 124
-125 -119
-125 122
119 -122 125
-126 -124
-126 -125
124 125 126
-127 -119
-127 -122
119 122 127
-128 -123
-128 -127
123 127 128
-129 -23
-129 24
23 -24 129
-130 23
-130 -24
-23 24 130
-131 -129
-131 -130
129 130 131
-132 23
-132 24
-23 -24 132
-133 128
-133 -131
-128 131 133
-134 -128
-134 131
128 -131 134
-135 -133
-135 -134
133 134 135
-136 -128
-136 -131
128 131 136
-137 -132
-137 -136
132 136 137
-138 -24
-138 25
24 -25 138
-139 24
-139 -25
-24 25 139
-140 -138
-140 -139
138 139 140
-141 24
-141 25
-24 -25 141
-142 137
-142 -140
-137 140 142
-143 -137
-143 140
137 -140 143
-144 -142
-144 -143
142 143 144
-145 -137
-145 -140
137 140 145
-146 -141
-146 -145
141 145 146
-147 -25
-147 26
25 -26 147
-148 25
-148 -26
-25 26 148
-149 -147
-149 -148
147 148 149
-150 25
-150 26
-25 -26 150
-151 146
-151 -149
-146 149 151
-152 -146
-152 149
146 -149 152
-153 -151
-153 -152
151 152 153
-154 -146
-154 -149
146 149 154
-155 -150
-155 -154
150 154 155
-156 -26
-156 27
26 -27 156
-157 26
-157 -27
-26 27 157
-158 -156
-158 -157
156 157 158
-159 26
-159 27
-26 -27 159
-160 155
-160 -158
-155 158 160
-161 -155
-161 158
155 -158 161
-162 -160
-162 -161
160 161 162
-163 -155
-163 -158
155 158 163
-164 -159
-164 -163
159 163 164
-165 -27
-165 28
27 -28 165
-166 27
-166 -28
-27 28 166
-167 -165
-167 -166
165 166 167
-168 27
-168 28
-27 -28 168
-169 164
-169 -167
-164 167 169
-170 -164
-170 167
164 -167 170
-171 -169
-171 -170
169 170 171
-172 -164
-172 -167
164 167 172
-173 -168
-173 -172
168 172 173
-174 -28
-174 29
28 -29 174
-175 28
-175 -29
-28 29 175
-176 -174
-176 -175
174 175 176
-177 28
-177 29
-28 -29 177
-178 173
-178 -176
-173 176 178
-179 -173
-179 176
173 -176 179
-180 -178
-180 -179
178 179 180
-181 -173
-181 -176
173 176 181
-182 -177
-182 -181
177 181 182
-183 -29
-183 30
29 -30 183
-184 29
-184 -30
-29 30 184
-185 -183
-185 -184
183 184 185
-186 29
-186 30
-29 -30 186
-187 182
-187 -185
-182 185 187
-188 -182
-188 185
182 -185 188
-189 -187
-189 -188
187 188 189
-190 -182
-190 -185
182 185 190
-191 -186
-191 -190
186 190 191
-192 -30
-192 31
30 -31 192
-193 30
-193 -31
-30 31 193
-194 -192
-194 -193
192 193 194
-195 30
-195 31
-30 -31 195
-196 191
-196 -194
-191 194 196
-197 -191
-197 194
191 -194 197
-198 -196
-198 -197
196 197 198
-199 -191
-199 -194
191 194 199
-200 -195
-200 -199
195 199 200
-201 -31
-201 32
31 -32 201
-202 31
-202 -32
-31 32 202
-203 -201
-203 -202
201 202 203
-204 31
-204 32
-31 -32 204
-205 200
-205 -203
-200 203 205
-206 -200
-206 203
200 -203 206
-207 -205
-207 -206
205 206 207
-208 -200
-208 -203
200 203 208
-209 -204
-209 -208
204 208 209
-210 -32
-210 33
32 -33 210
-211 32
-211 -33
-32 33 211
-212 -210
-212 -211
210 211 212
-213 32
-213 33
-32 -33 213
-214 209
-214 -212
-209 212 214
-215 -209
-215 212
209 -212 215
-216 -214
-216 -215
214 215 216
-217 -209
-217 -212
209 212 217
-218 -213
-218 -217
213 217 218
-219 -33
-219 34
33 -34 219
-220 33
-220 -34
-33 34 220
-221 -219
-221 -220
219 220 221
-222 33
-222 34
-33 -34 222
-223 218
-223 -221
-218 221 223
-224 -218
-224 221
218 -221 224
-225 -223
-225 -224
223 224 225
-226 -218
-226 -221
218 221 226
-227 -222
-227 -226
222 226 227
-228 -34
-228 35
34 -35 228
-229 34
-229 -35
-34 35 229
-230 -228
-230 -229
228 229 230
-231 34
-231 35
-34 -35 231
-232 227
-232 -230
-227 230 232
-233 -227
-233 230
227 -230 233
-234 -232
-234 -233
232 233 234
-235 -227
-235 -230
227 230 235
-236 -231
-236 -235
231 235 236
-237 -35
-237 36
35 -36 237
-238 35
-238 -36
-35 36 238
-239 -237
-239 -238
237 238 239
-240 35
-240 36
-35 -36 240
-241 236
-241 -239
-236 239 241
-242 -236
-242 239
236 -239 242
-243 -241
-243 -242
241 242 243
-244 -236
-244 -239
236 239 244
-245 -240
-245 -244
240 244 245
-246 -36
-246 37
36 -37 246
-247 36
-247 -37
-36 37 247
-248 -246
-248 -247
246 247 248
-249 36
-249 37
-36 -37 249
-250 245
-250 -248
-245 248 250
-251 -245
-251 248
245 -248 251
-252 -250
-252 -251
250 251 252
-253 -245
-253 -248
245 248 253
-254 -249
-254 -253
249 253 254
-255 -37
-255 38
37 -38 255
-256 37
-256 -38
-37 38 256
-257 -255
-257 -256
255 256 257
-258 37
-258 38
-37 -38 258
-259 254
-259 -257
-254 257 259
-260 -254
-260 257
254 -257 260
-261 -259
-261 -260
259 260 261
-262 -254
-262 -257
254 257 262
-263 -258
-263 -262
258 262 263
-264 -38
-264 39
38 -39 264
-265 38
-265 -39
-38 39 265
-266 -264
-266 -265
264 265 266
-267 38
-267 39
-38 -39 267
-268 263
-268 -266
-263 266 268
-269 -263
-269 266
263 -266 269
-270 -268
-270 -269
268 269 270
-271 -263
-271 -266
263 266 271
-272 -267
-272 -271
267 271 272
-273 -39
-273 40
39 -40 273
-274 39
-274 -40
-39 40 274
-275 -273
-275 -274
273 274 275
-276 39
-276 40
-39 -40 276
-277 272
-277 -275
-272 275 277
-278 -272
-278 275
272 -275 278
-279 -277
-279 -278
277 278 279
-280 -272
-280 -275
272 275 280
-281 -276
-281 -280
276 280 281
-282 -40
-282 41
40 -41 282
-283 40
-283 -41
-40 41 283
-284 -282
-284 -283
282 283 284
-285 40
-285 41
-40 -41 285
-286 281
-286 -284
-281 284 286
-287 -281
-287 284
281 -284 287
-288 -286
-288 -287
286 287 288
-289 -281
-289 -284
281 284 289
-290 -285
-290 -289
285 289 290
-291 -41
-291 42
41 -42 291
-292 41
-292 -42
-41 42 292
-293 -291
-293 -292
291 292 293
-294 41
-294 42
-41 -42 294
-295 290
-295 -293
-290 293 295
-296 -290
-296 293
290 -293 296
-297 -295
-297 -296
295 296 297
-298 -290
-298 -293
290 293 298
-299 -294
-299 -298
294 298 299
-300 -42
-300 43
42 -43 300
-301 42
-301 -43
-42 43 301
-302 -300
-302 -301
300 301 302
-303 42
-303 43
-42 -43 303
-304 299
-304 -302
-299 302 304
-305 -299
-305 302
299 -302 305
-306 -304
-306 -305
304 305 306
-307 -299
-307 -302
299 302 307
-308 -303
-308 -307
303 307 308
-309 -43
-309 44
43 -44 309
-310 43
-310 -44
-43 44 310
-311 -309
-311 -310
309 310 311
-312 43
-312 44
-43 -44 312
-313 308
-313 -311
-308 311 313
-314 -308
-314 311
308 -311 314
-315 -313
-315 -314
313 314 315
-316 -308
-316 -311
308 311 316
-317 -312
-317 -316
312 316 317
-318 -44
-318 45
44 -45 318
-319 44
-319 -45
-44 45 319
-320 -318
-320 -319
318 319 320
-321 44
-321 45
-44 -45 321
-322 317
-322 -320
-317 320 322
-323 -317
-323 320
317 -320 323
-324 -322
-324 -323
322 323 324
-325 -317
-325 -320
317 320 325
-326 -321
-326 -325
321 325 326
-327 -45
-327 46
45 -46 327
-328 45
-328 -46
-45 46 328
-329 -327
-329 -328
327 328 329
-330 45
-330 46
-45 -46 330
-331 326
-331 -329
-326 329 331
-332 -326
-332 329
326 -329 332
-333 -331
-333 -332
331 332 333
-334 -326
-334 -329
326 329 334
-335 -330
-335 -334
330 334 335
-336 17
-336 -81
-17 81 336
-337 -17
-337 19
17 -19 337
-338 -336
-338 -337
336 337 338
-339 17
-339 -90
-17 90 339
-340 -17
-340 20
17 -20 340
-341 -339
-341 -340
339 340 341
-342 17
-342 -99
-17 99 342
-343 -17
-343 21
17 -21 343
-344 -342
-344 -343
342 343 344
-345 17
-345 -108
-17 108 345
-346 -17
-346 22
17 -22 346
-347 -345
-347 -346
345 346 347
-348 17
-348 -117
-17 117 348
-349 -17
-349 23
17 -23 349
-350 -348
-350 -349
348 349 350
-351 17
-351 -126
-17 126 351
-352 -17
-352 24
17 -24 352
-353 -351
-353 -352
351 352 353
-354 17
-354 -135
-17 135 354
-355 -17
-355 25
17 -25 355
-356 -354
-356 -355
354 355 356
-357 17
-357 -144
-17 144 357
-358 -17
-358 26
17 -26 358
-359 -357
-359 -358
357 358 359
-360 17
-360 -153
-17 153 360
-361 -17
-361 27
17 -27 361
-362 -360
-362 -361
360 361 362
-363 17
-363 -162
-17 162 363
-364 -17
-364 28
17 -28 364
-365 -363
-365 -364
363 364 365
-366 17
-366 -171
-17 171 366
-367 -17
-367 29
17 -29 367
-368 -366
-368 -367
366 367 368
-369 17
-369 -180
-17 180 369
-370 -17
-370 30
17 -30 370
-371 -369
-371 -370
369 370 371
-372 17
-372 -189
-17 189 372
-373 -17
-373 31
17 -31 373
-374 -372
-374 -373
372 373 374
-375 17
-375 -198
-17 198 375
-376 -17
-376 32
17 -32 376
-377 -375
-377 -376
375 376 377
-378 17
-378 -207
-17 207 378
-379 -17
-379 33
17 -33 379
-380 -378
-380 -379
378 379 380
-381 17
-381 -216
-17 216 381
-382 -17
-382 34
17 -34 382
-383 -381
-383 -382
381 382 383
-384 17
-384 -225
-17 225 384
-385 -17
-385 35
17 -35 385
-386 -384
-386 -385
384 385 386
-387 17
-387 -234
-17 234 387
-388 -17
-388 36
17 -36 388
-389 -387
-389 -388
387 388 389
-390 17
-390 -243
-17 243 390
-391 -17
-391 37
17 -37 391
-392 -390
-392 -391
390 391 392
-393 17
-393 -252
-17 252 393
-394 -17
-394 38
17 -38 394
-395 -393
-395 -394
393 394 395
-396 17
-396 -261
-17 261 396
-397 -17
-397 39
17 -39 397
-398 -396
-398 -397
396 397 398
-399 17
-399 -270
-17 270 399
-400 -17
-400 40
17 -40 400
-401 -399
-401 -400
399 400 401
-402 17
-402 -279
-17 279 402
-403 -17
-403 41
17 -41 403
-404 -402
-404 -403
402 403 404
-405 17
-405 -288
-17 288 405
-406 -17
-406 42
17 -42 406
-407 -405
-407 -406
405 406 407
-408 17
-408 -297
-17 297 408
-409 -17
-409 43
17 -43 409
-410 -408
-410 -409
408 409 410
-411 17
-411 -306
-17 306 411
-412 -17
-412 44
17 -44 412
-413 -411
-413 -412
411 412 413
-414 17
-414 -315
-17 315 414
-415 -17
-415 45
17 -45 415
-416 -414
-416 -415
414 415 416
-417 17
-417 -324
-17 324 417
-418 -17
-418 46
17 -46 418
-419 -417
-419 -418
417 418 419
-420 17
-420 -333
-17 333 420
-421 1
-421 74
-1 -74 421
-422 -74
-422 75
74 -75 422
-423 -421
-423 -422
421 422 423
-424 2
-424 74
-2 -74 424
-425 -74
-425 -338
74 338 425
-426 -424
-426 -425
424 425 426
-427 3
-427 74
-3 -74 427
-428 -74
-428 -341
74 341 428
-429 -427
-429 -428
427 428 429
-430 4
-430 74
-4 -74 430
-431 -74
-431 -344
74 344 431
-432 -430
-432 -431
430 431 432
-433 5
-433 74
-5 -74 433
-434 -74
-434 -347
74 347 434
-435 -433
-435 -434
433 434 435
-436 6
-436 74
-6 -74 436
-437 -74
-437 -350
74 350 437
-438 -436
-438 -437
436 437 438
-439 7
-439 74
-7 -74 439
-440 -74
-440 -353
74 353 440
-441 -439
-441 -440
439 440 441
-442 8
-442 74
-8 -74 442
-443 -74
-443 -356
74 356 443
-444 -442
-444 -443
442 443 444
-445 9
-445 74
-9 -74 445
-446 -74
-446 -359
74 359 446
-447 -445
-447 -446
445 446 447
-448 10
-448 74
-10 -74 448
-449 -74
-449 -362
74 362 449
-450 -448
-450 -449
448 449 450
-451 11
-451 74
-11 -74 451
-452 -74
-452 -365
74 365 452
-453 -451
-453 -452
451 452 453
-454 12
-454 74
-12 -74 454
-455 -74
-455 -368
74 368 455
-456 -454
-456 -455
454 455 456
-457 13
-457 74
-13 -74 457
-458 -74
-458 -371
74 371 458
-459 -457
-459 -458
457 458 459
-460 14
-460 74
-14 -74 460
-461 -74
-461 -374
74 374 461
-462 -460
-462 -461
460 461 462
-463 15
-463 74
-15 -74 463
-464 -74
-464 -377
74 377 464
-465 -463
-465 -464
463 464 465
-466 16
-466 74
-16 -74 466
-467 -74
-467 -380
74 380 467
-468 -466
-468 -467
466 467 468
-469 -74
-469 -383
74 383 469
-470 -74
-470 -386
74 386 470
-471 -74
-471 -389
74 389 471
-472 -74
-472 -392
74 392 472
-473 -74
-473 -395
74 395 473
-474 -74
-474 -398
74 398 474
-475 -74
-475 -401
74 401 475
-476 -74
-476 -404
74 404 476
-477 -74
-477 -407
74 407 477
-478 -74
-478 -410
74 410 478
-479 -74
-479 -413
74 413 479
-480 -74
-480 -416
74 416 480
-481 -74
-481 -419
74 419 481
-482 -74
-482 420
74 -420 482
-483 -46
-483 335
46 -335 483
-484 17
-484 -483
-17 483 484
484
